100 4047
653 647 540 285 743 393 240 881 783 178 396 134 1043 596 644 750 665 968 393 480 535 307 733 365 293 94 425 722 532 902 59 143 285 503 404 714 239 158 279 177 738 443 1 1 395 405 359 351 954 649 699 610 779 104 202 413 649 911 108 632 59 69 366 305 303 646 28 973 390 443 838 850 145 400 413 300 630 468 664 249 590 1 176 328 206 373 59 860 253 42 414 327 658 320 681 308 517 499 207 482 
697 602 500 369 822 431 167 889 767 152 349 217 958 626 670 682 735 998 411 428 455 365 718 436 358 94 460 717 511 909 139 49 237 555 502 719 326 226 302 268 801 399 40 43 305 488 339 335 961 630 680 638 695 154 266 477 587 936 22 576 94 16 353 400 333 738 22 900 358 359 911 947 48 333 457 310 620 393 746 312 559 35 228 415 199 375 89 906 348 81 374 410 638 277 602 275 499 510 270 498 
